; benchmark generated from python API
(set-info :status unknown)
(declare-datatypes ((IntState 0)) (((Mk1 (val1 Int)) (Mk2 (val2 Int)))))
 (declare-fun c_main_~z~0_primed () Int)
(declare-fun c_main_~x~0_primed () Int)
(declare-fun c_main_~y~0_primed () Int)
(declare-fun c_main_~z~0 () Int)
(declare-fun c_main_~x~0 () Int)
(declare-fun c_main_~y~0 () Int)
(declare-fun |c_main_#t~nondet0| () Int)
(declare-fun |c_main_#t~nondet2| () Int)
(declare-fun |c_main_#t~nondet1| () Int)
(assert
 (let (($x89 (exists ((|v_main_#t~nondet2_5_st| IntState) (val!82 Int) )(let (($x112 (not (= |v_main_#t~nondet2_5_st| (Mk1 val!82)))))
 (and $x112 (= (* 8 (val2 |v_main_#t~nondet2_5_st|)) c_main_~z~0_primed))))
 ))
 (let (($x19 (exists ((|v_main_#t~nondet0_5_st| IntState) (val!81 Int) )(let (($x112 (not (= |v_main_#t~nondet0_5_st| (Mk1 val!81)))))
 (and $x112 (= (* 2 (val2 |v_main_#t~nondet0_5_st|)) c_main_~x~0_primed))))
 ))
 (let (($x16 (exists ((|v_main_#t~nondet1_5_st| IntState) (val!80 Int) )(let (($x112 (not (= |v_main_#t~nondet1_5_st| (Mk1 val!80)))))
 (and $x112 (= (* 4 (val2 |v_main_#t~nondet1_5_st|)) c_main_~y~0_primed))))
 ))
 (let (($x119 (exists ((|v_main_#t~nondet2_5| Int) )(let ((?x7 (* 8 |v_main_#t~nondet2_5|)))
 (= ?x7 c_main_~z~0)))
 ))
 (let (($x148 (exists ((|v_main_#t~nondet0_5| Int) )(let ((?x30 (* 2 |v_main_#t~nondet0_5|)))
 (= ?x30 c_main_~x~0)))
 ))
 (let (($x11 (exists ((|v_main_#t~nondet1_5| Int) )(let ((?x200 (* 4 |v_main_#t~nondet1_5|)))
 (= ?x200 c_main_~y~0)))
 ))
 (let (($x193 (and (= c_main_~y~0_primed (+ (* 4 |c_main_#t~nondet1|) c_main_~y~0)) (= c_main_~z~0_primed (+ (* 8 |c_main_#t~nondet2|) c_main_~z~0)) (= c_main_~x~0_primed (+ (* 2 |c_main_#t~nondet0|) c_main_~x~0)))))
 (and $x193 (and $x11 $x148 $x119) (not (and $x16 $x19 $x89)))))))))))
(check-sat)
